NAME : G100_2235_01
COMMENT : Generated CVRP instance (n=100)
TYPE : CVRP
DIMENSION : 101
EDGE_WEIGHT_TYPE : EUC_2D
CAPACITY : 181
NODE_COORD_SECTION
1    500  500 
2    143  725 
3    988  454 
4    889  460 
5    941  488 
6    147  841 
7    32   851 
8    695  603 
9    43   796 
10   858  435 
11   850  559 
12   12   820 
13   895  456 
14   60   933 
15   190  698 
16   960  488 
17   146  927 
18   11   821 
19   17   837 
20   941  474 
21   978  438 
22   925  386 
23   3    764 
24   123  854 
25   224  876 
26   834  512 
27   139  862 
28   219  900 
29   956  483 
30   7    764 
31   20   828 
32   55   822 
33   874  413 
34   23   833 
35   960  446 
36   91   900 
37   961  509 
38   86   675 
39   38   809 
40   967  433 
41   32   786 
42   867  492 
43   160  749 
44   958  350 
45   930  496 
46   5    722 
47   37   846 
48   696  338 
49   936  475 
50   75   912 
51   866  495 
52   672  520 
53   7    816 
54   1    775 
55   42   792 
56   988  368 
57   900  548 
58   55   764 
59   935  515 
60   24   795 
61   107  811 
62   123  755 
63   96   649 
64   962  571 
65   72   700 
66   38   769 
67   763  499 
68   90   898 
69   912  460 
70   983  511 
71   876  211 
72   900  449 
73   68   803 
74   856  336 
75   105  718 
76   987  508 
77   957  348 
78   989  417 
79   937  443 
80   89   825 
81   954  413 
82   73   838 
83   885  399 
84   853  476 
85   72   878 
86   857  217 
87   20   825 
88   861  482 
89   888  381 
90   159  931 
91   842  423 
92   940  547 
93   938  467 
94   5    799 
95   986  498 
96   902  337 
97   40   830 
98   35   678 
99   38   741 
100  908  462 
101  885  485 
DEMAND_SECTION
1    0   
2    10  
3    6   
4    9   
5    5   
6    9   
7    5   
8    10  
9    7   
10   5   
11   5   
12   9   
13   6   
14   8   
15   10  
16   8   
17   8   
18   5   
19   8   
20   9   
21   8   
22   10  
23   7   
24   9   
25   9   
26   5   
27   10  
28   10  
29   5   
30   10  
31   9   
32   5   
33   9   
34   7   
35   6   
36   7   
37   7   
38   8   
39   8   
40   6   
41   6   
42   8   
43   5   
44   7   
45   10  
46   9   
47   9   
48   8   
49   8   
50   9   
51   5   
52   7   
53   10  
54   5   
55   8   
56   6   
57   5   
58   9   
59   9   
60   10  
61   5   
62   7   
63   9   
64   9   
65   8   
66   10  
67   10  
68   10  
69   5   
70   10  
71   9   
72   9   
73   9   
74   5   
75   5   
76   10  
77   6   
78   7   
79   7   
80   10  
81   6   
82   10  
83   8   
84   8   
85   9   
86   9   
87   5   
88   7   
89   10  
90   9   
91   7   
92   8   
93   8   
94   10  
95   6   
96   7   
97   7   
98   7   
99   9   
100  7   
101  5   
DEPOT_SECTION
1
-1
EOF
